c nIsolatedPIs 0
c maxPI 11
p cnf 471 1381
c gate 12 3 -10 0
3 -12 0
-10 -12 0
-3 10 12 0
c gate 13 9 12 0
9 -13 0
12 -13 0
-9 -12 13 0
c gate 14 -3 10 0
-3 -14 0
10 -14 0
3 -10 14 0
c gate 15 -2 -14 0
-2 -15 0
-14 -15 0
2 14 15 0
c gate 16 -13 15 0
-13 -16 0
15 -16 0
13 -15 16 0
c gate 17 2 -3 0
2 -17 0
-3 -17 0
-2 3 17 0
c gate 18 2 9 0
2 -18 0
9 -18 0
-2 -9 18 0
c gate 19 -8 -18 0
-8 -19 0
-18 -19 0
8 18 19 0
c gate 20 -17 19 0
-17 -20 0
19 -20 0
17 -19 20 0
c gate 21 -16 20 0
-16 -21 0
20 -21 0
16 -20 21 0
c gate 22 8 10 0
8 -22 0
10 -22 0
-8 -10 22 0
c gate 23 -2 -9 0
-2 -23 0
-9 -23 0
2 9 23 0
c gate 24 -18 -23 0
-18 -24 0
-23 -24 0
18 23 24 0
c gate 25 22 -24 0
22 -25 0
-24 -25 0
-22 24 25 0
c gate 26 7 -10 0
7 -26 0
-10 -26 0
-7 10 26 0
c gate 27 -7 10 0
-7 -27 0
10 -27 0
7 -10 27 0
c gate 28 -26 -27 0
-26 -28 0
-27 -28 0
26 27 28 0
c gate 29 -2 -3 0
-2 -29 0
-3 -29 0
2 3 29 0
c gate 30 8 9 0
8 -30 0
9 -30 0
-8 -9 30 0
c gate 31 29 30 0
29 -31 0
30 -31 0
-29 -30 31 0
c gate 32 -28 31 0
-28 -32 0
31 -32 0
28 -31 32 0
c gate 33 -25 -32 0
-25 -33 0
-32 -33 0
25 32 33 0
c gate 34 -21 33 0
-21 -34 0
33 -34 0
21 -33 34 0
c gate 35 2 -10 0
2 -35 0
-10 -35 0
-2 10 35 0
c gate 36 -2 10 0
-2 -36 0
10 -36 0
2 -10 36 0
c gate 37 -35 -36 0
-35 -37 0
-36 -37 0
35 36 37 0
c gate 38 9 -37 0
9 -38 0
-37 -38 0
-9 37 38 0
c gate 39 3 -38 0
3 -39 0
-38 -39 0
-3 38 39 0
c gate 40 -12 -39 0
-12 -40 0
-39 -40 0
12 39 40 0
c gate 41 34 40 0
34 -41 0
40 -41 0
-34 -40 41 0
c gate 42 -11 -41 0
-11 -42 0
-41 -42 0
11 41 42 0
c gate 43 -10 -11 0
-10 -43 0
-11 -43 0
10 11 43 0
c gate 44 29 43 0
29 -44 0
43 -44 0
-29 -43 44 0
c gate 45 -2 -11 0
-2 -45 0
-11 -45 0
2 11 45 0
c gate 46 -3 45 0
-3 -46 0
45 -46 0
3 -45 46 0
c gate 47 4 5 0
4 -47 0
5 -47 0
-4 -5 47 0
c gate 48 8 -9 0
8 -48 0
-9 -48 0
-8 9 48 0
c gate 49 -47 48 0
-47 -49 0
48 -49 0
47 -48 49 0
c gate 50 -7 8 0
-7 -50 0
8 -50 0
7 -8 50 0
c gate 51 7 -9 0
7 -51 0
-9 -51 0
-7 9 51 0
c gate 52 -7 9 0
-7 -52 0
9 -52 0
7 -9 52 0
c gate 53 -5 -52 0
-5 -53 0
-52 -53 0
5 52 53 0
c gate 54 -51 -53 0
-51 -54 0
-53 -54 0
51 53 54 0
c gate 55 -50 54 0
-50 -55 0
54 -55 0
50 -54 55 0
c gate 56 -49 -55 0
-49 -56 0
-55 -56 0
49 55 56 0
c gate 57 41 -56 0
41 -57 0
-56 -57 0
-41 56 57 0
c gate 58 46 -57 0
46 -58 0
-57 -58 0
-46 57 58 0
c gate 59 2 11 0
2 -59 0
11 -59 0
-2 -11 59 0
c gate 60 -45 -59 0
-45 -60 0
-59 -60 0
45 59 60 0
c gate 61 -3 -34 0
-3 -61 0
-34 -61 0
3 34 61 0
c gate 62 3 41 0
3 -62 0
41 -62 0
-3 -41 62 0
c gate 63 -61 -62 0
-61 -63 0
-62 -63 0
61 62 63 0
c gate 64 60 -63 0
60 -64 0
-63 -64 0
-60 63 64 0
c gate 65 -11 41 0
-11 -65 0
41 -65 0
11 -41 65 0
c gate 66 2 -61 0
2 -66 0
-61 -66 0
-2 61 66 0
c gate 67 -65 66 0
-65 -67 0
66 -67 0
65 -66 67 0
c gate 68 -64 -67 0
-64 -68 0
-67 -68 0
64 67 68 0
c gate 69 -58 68 0
-58 -69 0
68 -69 0
58 -68 69 0
c gate 70 -44 -69 0
-44 -70 0
-69 -70 0
44 69 70 0
c gate 71 -9 -11 0
-9 -71 0
-11 -71 0
9 11 71 0
c gate 72 9 -10 0
9 -72 0
-10 -72 0
-9 10 72 0
c gate 73 -71 -72 0
-71 -73 0
-72 -73 0
71 72 73 0
c gate 74 -56 73 0
-56 -74 0
73 -74 0
56 -73 74 0
c gate 75 43 56 0
43 -75 0
56 -75 0
-43 -56 75 0
c gate 76 8 -75 0
8 -76 0
-75 -76 0
-8 75 76 0
c gate 77 -74 76 0
-74 -77 0
76 -77 0
74 -76 77 0
c gate 78 10 11 0
10 -78 0
11 -78 0
-10 -11 78 0
c gate 79 -11 56 0
-11 -79 0
56 -79 0
11 -56 79 0
c gate 80 9 -11 0
9 -80 0
-11 -80 0
-9 11 80 0
c gate 81 54 -80 0
54 -81 0
-80 -81 0
-54 80 81 0
c gate 82 -8 -81 0
-8 -82 0
-81 -82 0
8 81 82 0
c gate 83 -79 82 0
-79 -83 0
82 -83 0
79 -82 83 0
c gate 84 -78 -83 0
-78 -84 0
-83 -84 0
78 83 84 0
c gate 85 -77 84 0
-77 -85 0
84 -85 0
77 -84 85 0
c gate 86 -56 85 0
-56 -86 0
85 -86 0
56 -85 86 0
c gate 87 70 86 0
70 -87 0
86 -87 0
-70 -86 87 0
c gate 88 56 -85 0
56 -88 0
-85 -88 0
-56 85 88 0
c gate 89 -86 -88 0
-86 -89 0
-88 -89 0
86 88 89 0
c gate 90 -70 89 0
-70 -90 0
89 -90 0
70 -89 90 0
c gate 91 29 -90 0
29 -91 0
-90 -91 0
-29 90 91 0
c gate 92 -87 91 0
-87 -92 0
91 -92 0
87 -91 92 0
c gate 93 9 17 0
9 -93 0
17 -93 0
-9 -17 93 0
c gate 94 -92 -93 0
-92 -94 0
-93 -94 0
92 93 94 0
c gate 95 42 -94 0
42 -95 0
-94 -95 0
-42 94 95 0
c gate 96 9 -17 0
9 -96 0
-17 -96 0
-9 17 96 0
c gate 97 11 68 0
11 -97 0
68 -97 0
-11 -68 97 0
c gate 98 96 -97 0
96 -98 0
-97 -98 0
-96 97 98 0
c gate 99 41 -98 0
41 -99 0
-98 -99 0
-41 98 99 0
c gate 100 -92 99 0
-92 -100 0
99 -100 0
92 -99 100 0
c gate 101 -95 -100 0
-95 -101 0
-100 -101 0
95 100 101 0
c gate 102 4 7 0
4 -102 0
7 -102 0
-4 -7 102 0
c gate 103 1 102 0
1 -103 0
102 -103 0
-1 -102 103 0
c gate 104 -8 -9 0
-8 -104 0
-9 -104 0
8 9 104 0
c gate 105 5 104 0
5 -105 0
104 -105 0
-5 -104 105 0
c gate 106 103 105 0
103 -106 0
105 -106 0
-103 -105 106 0
c gate 107 56 -106 0
56 -107 0
-106 -107 0
-56 106 107 0
c gate 108 7 -8 0
7 -108 0
-8 -108 0
-7 8 108 0
c gate 109 -50 -108 0
-50 -109 0
-108 -109 0
50 108 109 0
c gate 110 6 -109 0
6 -110 0
-109 -110 0
-6 109 110 0
c gate 111 -6 -26 0
-6 -111 0
-26 -111 0
6 26 111 0
c gate 112 -110 -111 0
-110 -112 0
-111 -112 0
110 111 112 0
c gate 113 8 -112 0
8 -113 0
-112 -113 0
-8 112 113 0
c gate 114 107 113 0
107 -114 0
113 -114 0
-107 -113 114 0
c gate 115 -6 8 0
-6 -115 0
8 -115 0
6 -8 115 0
c gate 116 -8 -10 0
-8 -116 0
-10 -116 0
8 10 116 0
c gate 117 -22 -116 0
-22 -117 0
-116 -117 0
22 116 117 0
c gate 118 7 -117 0
7 -118 0
-117 -118 0
-7 117 118 0
c gate 119 -115 -118 0
-115 -119 0
-118 -119 0
115 118 119 0
c gate 120 112 -119 0
112 -120 0
-119 -120 0
-112 119 120 0
c gate 121 -6 -7 0
-6 -121 0
-7 -121 0
6 7 121 0
c gate 122 -8 -121 0
-8 -122 0
-121 -122 0
8 121 122 0
c gate 123 28 122 0
28 -123 0
122 -123 0
-28 -122 123 0
c gate 124 -120 -123 0
-120 -124 0
-123 -124 0
120 123 124 0
c gate 125 -107 -124 0
-107 -125 0
-124 -125 0
107 124 125 0
c gate 126 116 121 0
116 -126 0
121 -126 0
-116 -121 126 0
c gate 127 -125 -126 0
-125 -127 0
-126 -127 0
125 126 127 0
c gate 128 -114 127 0
-114 -128 0
127 -128 0
114 -127 128 0
c gate 129 9 -128 0
9 -129 0
-128 -129 0
-9 128 129 0
c gate 130 -27 50 0
-27 -130 0
50 -130 0
27 -50 130 0
c gate 131 -118 -130 0
-118 -131 0
-130 -131 0
118 130 131 0
c gate 132 6 -9 0
6 -132 0
-9 -132 0
-6 9 132 0
c gate 133 -131 132 0
-131 -133 0
132 -133 0
131 -132 133 0
c gate 134 -7 107 0
-7 -134 0
107 -134 0
7 -107 134 0
c gate 135 -9 -115 0
-9 -135 0
-115 -135 0
9 115 135 0
c gate 136 117 -135 0
117 -136 0
-135 -136 0
-117 135 136 0
c gate 137 7 -107 0
7 -137 0
-107 -137 0
-7 107 137 0
c gate 138 136 -137 0
136 -138 0
-137 -138 0
-136 137 138 0
c gate 139 -134 138 0
-134 -139 0
138 -139 0
134 -138 139 0
c gate 140 -133 -139 0
-133 -140 0
-139 -140 0
133 139 140 0
c gate 141 -129 140 0
-129 -141 0
140 -141 0
129 -140 141 0
c gate 142 -107 141 0
-107 -142 0
141 -142 0
107 -141 142 0
c gate 143 107 -141 0
107 -143 0
-141 -143 0
-107 141 143 0
c gate 144 -142 -143 0
-142 -144 0
-143 -144 0
142 143 144 0
c gate 145 34 144 0
34 -145 0
144 -145 0
-34 -144 145 0
c gate 146 -34 141 0
-34 -146 0
141 -146 0
34 -141 146 0
c gate 147 46 -146 0
46 -147 0
-146 -147 0
-46 146 147 0
c gate 148 -145 147 0
-145 -148 0
147 -148 0
145 -147 148 0
c gate 149 68 -148 0
68 -149 0
-148 -149 0
-68 148 149 0
c gate 150 -11 -149 0
-11 -150 0
-149 -150 0
11 149 150 0
c gate 151 -97 -150 0
-97 -151 0
-150 -151 0
97 150 151 0
c gate 152 43 141 0
43 -152 0
141 -152 0
-43 -141 152 0
c gate 153 80 -152 0
80 -153 0
-152 -153 0
-80 152 153 0
c gate 154 144 153 0
144 -154 0
153 -154 0
-144 -153 154 0
c gate 155 11 107 0
11 -155 0
107 -155 0
-11 -107 155 0
c gate 156 -10 155 0
-10 -156 0
155 -156 0
10 -155 156 0
c gate 157 -11 -107 0
-11 -157 0
-107 -157 0
11 107 157 0
c gate 158 -155 -157 0
-155 -158 0
-157 -158 0
155 157 158 0
c gate 159 10 158 0
10 -159 0
158 -159 0
-10 -158 159 0
c gate 160 -156 -159 0
-156 -160 0
-159 -160 0
156 159 160 0
c gate 161 141 -160 0
141 -161 0
-160 -161 0
-141 160 161 0
c gate 162 -9 161 0
-9 -162 0
161 -162 0
9 -161 162 0
c gate 163 -8 -156 0
-8 -163 0
-156 -163 0
8 156 163 0
c gate 164 -162 163 0
-162 -164 0
163 -164 0
162 -163 164 0
c gate 165 -154 164 0
-154 -165 0
164 -165 0
154 -164 165 0
c gate 166 78 -140 0
78 -166 0
-140 -166 0
-78 140 166 0
c gate 167 -9 -166 0
-9 -167 0
-166 -167 0
9 166 167 0
c gate 168 -152 167 0
-152 -168 0
167 -168 0
152 -167 168 0
c gate 169 -10 -158 0
-10 -169 0
-158 -169 0
10 158 169 0
c gate 170 -141 169 0
-141 -170 0
169 -170 0
141 -169 170 0
c gate 171 -161 -170 0
-161 -171 0
-170 -171 0
161 170 171 0
c gate 172 168 171 0
168 -172 0
171 -172 0
-168 -171 172 0
c gate 173 -144 159 0
-144 -173 0
159 -173 0
144 -159 173 0
c gate 174 43 144 0
43 -174 0
144 -174 0
-43 -144 174 0
c gate 175 9 -174 0
9 -175 0
-174 -175 0
-9 174 175 0
c gate 176 -173 175 0
-173 -176 0
175 -176 0
173 -175 176 0
c gate 177 -172 -176 0
-172 -177 0
-176 -177 0
172 176 177 0
c gate 178 9 11 0
9 -178 0
11 -178 0
-9 -11 178 0
c gate 179 10 141 0
10 -179 0
141 -179 0
-10 -141 179 0
c gate 180 178 -179 0
178 -180 0
-179 -180 0
-178 179 180 0
c gate 181 8 -180 0
8 -181 0
-180 -181 0
-8 180 181 0
c gate 182 -177 181 0
-177 -182 0
181 -182 0
177 -181 182 0
c gate 183 -165 -182 0
-165 -183 0
-182 -183 0
165 182 183 0
c gate 184 -9 -140 0
-9 -184 0
-140 -184 0
9 140 184 0
c gate 185 9 141 0
9 -185 0
141 -185 0
-9 -141 185 0
c gate 186 -184 -185 0
-184 -186 0
-185 -186 0
184 185 186 0
c gate 187 -11 -117 0
-11 -187 0
-117 -187 0
11 117 187 0
c gate 188 -186 187 0
-186 -188 0
187 -188 0
186 -187 188 0
c gate 189 78 136 0
78 -189 0
136 -189 0
-78 -136 189 0
c gate 190 -188 -189 0
-188 -190 0
-189 -190 0
188 189 190 0
c gate 191 -183 190 0
-183 -191 0
190 -191 0
183 -190 191 0
c gate 192 -107 191 0
-107 -192 0
191 -192 0
107 -191 192 0
c gate 193 -3 141 0
-3 -193 0
141 -193 0
3 -141 193 0
c gate 194 -10 45 0
-10 -194 0
45 -194 0
10 -45 194 0
c gate 195 -34 194 0
-34 -195 0
194 -195 0
34 -194 195 0
c gate 196 193 195 0
193 -196 0
195 -196 0
-193 -195 196 0
c gate 197 44 -196 0
44 -197 0
-196 -197 0
-44 196 197 0
c gate 198 149 197 0
149 -198 0
197 -198 0
-149 -197 198 0
c gate 199 -149 -197 0
-149 -199 0
-197 -199 0
149 197 199 0
c gate 200 -198 -199 0
-198 -200 0
-199 -200 0
198 199 200 0
c gate 201 107 -191 0
107 -201 0
-191 -201 0
-107 191 201 0
c gate 202 200 -201 0
200 -202 0
-201 -202 0
-200 201 202 0
c gate 203 -192 202 0
-192 -203 0
202 -203 0
192 -202 203 0
c gate 204 192 -200 0
192 -204 0
-200 -204 0
-192 200 204 0
c gate 205 -191 198 0
-191 -205 0
198 -205 0
191 -198 205 0
c gate 206 29 -205 0
29 -206 0
-205 -206 0
-29 205 206 0
c gate 207 -204 206 0
-204 -207 0
206 -207 0
204 -206 207 0
c gate 208 -203 207 0
-203 -208 0
207 -208 0
203 -207 208 0
c gate 209 -11 208 0
-11 -209 0
208 -209 0
11 -208 209 0
c gate 210 11 -208 0
11 -210 0
-208 -210 0
-11 208 210 0
c gate 211 -209 -210 0
-209 -211 0
-210 -211 0
209 210 211 0
c gate 212 151 -211 0
151 -212 0
-211 -212 0
-151 211 212 0
c gate 213 9 212 0
9 -213 0
212 -213 0
-9 -212 213 0
c gate 214 -9 149 0
-9 -214 0
149 -214 0
9 -149 214 0
c gate 215 211 214 0
211 -215 0
214 -215 0
-211 -214 215 0
c gate 216 -213 -215 0
-213 -216 0
-215 -216 0
213 215 216 0
c gate 217 96 -193 0
96 -217 0
-193 -217 0
-96 193 217 0
c gate 218 -3 9 0
-3 -218 0
9 -218 0
3 -9 218 0
c gate 219 142 218 0
142 -219 0
218 -219 0
-142 -218 219 0
c gate 220 107 184 0
107 -220 0
184 -220 0
-107 -184 220 0
c gate 221 -219 -220 0
-219 -221 0
-220 -221 0
219 220 221 0
c gate 222 -7 -221 0
-7 -222 0
-221 -222 0
7 221 222 0
c gate 223 -3 -9 0
-3 -223 0
-9 -223 0
3 9 223 0
c gate 224 143 223 0
143 -224 0
223 -224 0
-143 -223 224 0
c gate 225 -222 -224 0
-222 -225 0
-224 -225 0
222 224 225 0
c gate 226 -2 -225 0
-2 -226 0
-225 -226 0
2 225 226 0
c gate 227 -2 -7 0
-2 -227 0
-7 -227 0
2 7 227 0
c gate 228 3 184 0
3 -228 0
184 -228 0
-3 -184 228 0
c gate 229 2 -52 0
2 -229 0
-52 -229 0
-2 52 229 0
c gate 230 193 -229 0
193 -230 0
-229 -230 0
-193 229 230 0
c gate 231 -228 -230 0
-228 -231 0
-230 -231 0
228 230 231 0
c gate 232 -227 -231 0
-227 -232 0
-231 -232 0
227 231 232 0
c gate 233 -226 -232 0
-226 -233 0
-232 -233 0
226 232 233 0
c gate 234 -217 233 0
-217 -234 0
233 -234 0
217 -233 234 0
c gate 235 41 -234 0
41 -235 0
-234 -235 0
-41 234 235 0
c gate 236 -216 235 0
-216 -236 0
235 -236 0
216 -235 236 0
c gate 237 -9 11 0
-9 -237 0
11 -237 0
9 -11 237 0
c gate 238 208 -237 0
208 -238 0
-237 -238 0
-208 237 238 0
c gate 239 -151 -238 0
-151 -239 0
-238 -239 0
151 238 239 0
c gate 240 -41 80 0
-41 -240 0
80 -240 0
41 -80 240 0
c gate 241 -212 240 0
-212 -241 0
240 -241 0
212 -240 241 0
c gate 242 -239 -241 0
-239 -242 0
-241 -242 0
239 241 242 0
c gate 243 -41 239 0
-41 -243 0
239 -243 0
41 -239 243 0
c gate 244 234 -243 0
234 -244 0
-243 -244 0
-234 243 244 0
c gate 245 -242 244 0
-242 -245 0
244 -245 0
242 -244 245 0
c gate 246 -41 -234 0
-41 -246 0
-234 -246 0
41 234 246 0
c gate 247 -208 246 0
-208 -247 0
246 -247 0
208 -246 247 0
c gate 248 41 234 0
41 -248 0
234 -248 0
-41 -234 248 0
c gate 249 208 248 0
208 -249 0
248 -249 0
-208 -248 249 0
c gate 250 -247 -249 0
-247 -250 0
-249 -250 0
247 249 250 0
c gate 251 9 -250 0
9 -251 0
-250 -251 0
-9 250 251 0
c gate 252 -9 -246 0
-9 -252 0
-246 -252 0
9 246 252 0
c gate 253 -248 252 0
-248 -253 0
252 -253 0
248 -252 253 0
c gate 254 -208 253 0
-208 -254 0
253 -254 0
208 -253 254 0
c gate 255 -251 -254 0
-251 -255 0
-254 -255 0
251 254 255 0
c gate 256 11 -255 0
11 -256 0
-255 -256 0
-11 255 256 0
c gate 257 41 -209 0
41 -257 0
-209 -257 0
-41 209 257 0
c gate 258 9 -234 0
9 -258 0
-234 -258 0
-9 234 258 0
c gate 259 -9 233 0
-9 -259 0
233 -259 0
9 -233 259 0
c gate 260 -258 -259 0
-258 -260 0
-259 -260 0
258 259 260 0
c gate 261 -42 260 0
-42 -261 0
260 -261 0
42 -260 261 0
c gate 262 -257 261 0
-257 -262 0
261 -262 0
257 -261 262 0
c gate 263 71 247 0
71 -263 0
247 -263 0
-71 -247 263 0
c gate 264 -248 -260 0
-248 -264 0
-260 -264 0
248 260 264 0
c gate 265 211 264 0
211 -265 0
264 -265 0
-211 -264 265 0
c gate 266 -263 -265 0
-263 -266 0
-265 -266 0
263 265 266 0
c gate 267 -262 266 0
-262 -267 0
266 -267 0
262 -266 267 0
c gate 268 -256 267 0
-256 -268 0
267 -268 0
256 -267 268 0
c gate 269 -245 268 0
-245 -269 0
268 -269 0
245 -268 269 0
c gate 270 -236 269 0
-236 -270 0
269 -270 0
236 -269 270 0
c gate 271 101 270 0
101 -271 0
270 -271 0
-101 -270 271 0
c gate 272 -101 -270 0
-101 -272 0
-270 -272 0
101 270 272 0
c gate 273 -92 208 0
-92 -273 0
208 -273 0
92 -208 273 0
c gate 274 92 -208 0
92 -274 0
-208 -274 0
-92 208 274 0
c gate 275 -2 11 0
-2 -275 0
11 -275 0
2 -11 275 0
c gate 276 -14 -275 0
-14 -276 0
-275 -276 0
14 275 276 0
c gate 277 -10 29 0
-10 -277 0
29 -277 0
10 -29 277 0
c gate 278 5 6 0
5 -278 0
6 -278 0
-5 -6 278 0
c gate 279 -5 -6 0
-5 -279 0
-6 -279 0
5 6 279 0
c gate 280 -278 -279 0
-278 -280 0
-279 -280 0
278 279 280 0
c gate 281 277 280 0
277 -281 0
280 -281 0
-277 -280 281 0
c gate 282 -78 -281 0
-78 -282 0
-281 -282 0
78 281 282 0
c gate 283 276 -282 0
276 -283 0
-282 -283 0
-276 282 283 0
c gate 284 -1 -102 0
-1 -284 0
-102 -284 0
1 102 284 0
c gate 285 -103 -284 0
-103 -285 0
-284 -285 0
103 284 285 0
c gate 286 -8 -285 0
-8 -286 0
-285 -286 0
8 285 286 0
c gate 287 -4 -5 0
-4 -287 0
-5 -287 0
4 5 287 0
c gate 288 -47 -287 0
-47 -288 0
-287 -288 0
47 287 288 0
c gate 289 8 -288 0
8 -289 0
-288 -289 0
-8 288 289 0
c gate 290 -9 -289 0
-9 -290 0
-289 -290 0
9 289 290 0
c gate 291 -286 290 0
-286 -291 0
290 -291 0
286 -290 291 0
c gate 292 -109 291 0
-109 -292 0
291 -292 0
109 -291 292 0
c gate 293 -10 -292 0
-10 -293 0
-292 -293 0
10 292 293 0
c gate 294 6 7 0
6 -294 0
7 -294 0
-6 -7 294 0
c gate 295 -121 -294 0
-121 -295 0
-294 -295 0
121 294 295 0
c gate 296 10 -295 0
10 -296 0
-295 -296 0
-10 295 296 0
c gate 297 -10 -290 0
-10 -297 0
-290 -297 0
10 290 297 0
c gate 298 -11 -297 0
-11 -298 0
-297 -298 0
11 297 298 0
c gate 299 -296 298 0
-296 -299 0
298 -299 0
296 -298 299 0
c gate 300 -293 299 0
-293 -300 0
299 -300 0
293 -299 300 0
c gate 301 11 109 0
11 -301 0
109 -301 0
-11 -109 301 0
c gate 302 291 293 0
291 -302 0
293 -302 0
-291 -293 302 0
c gate 303 -301 -302 0
-301 -303 0
-302 -303 0
301 302 303 0
c gate 304 -300 303 0
-300 -304 0
303 -304 0
300 -303 304 0
c gate 305 60 -304 0
60 -305 0
-304 -305 0
-60 304 305 0
c gate 306 -60 304 0
-60 -306 0
304 -306 0
60 -304 306 0
c gate 307 -305 -306 0
-305 -307 0
-306 -307 0
305 306 307 0
c gate 308 8 17 0
8 -308 0
17 -308 0
-8 -17 308 0
c gate 309 -12 -281 0
-12 -309 0
-281 -309 0
12 281 309 0
c gate 310 -308 309 0
-308 -310 0
309 -310 0
308 -309 310 0
c gate 311 2 -310 0
2 -311 0
-310 -311 0
-2 310 311 0
c gate 312 -2 309 0
-2 -312 0
309 -312 0
2 -309 312 0
c gate 313 -311 -312 0
-311 -313 0
-312 -313 0
311 312 313 0
c gate 314 -3 -45 0
-3 -314 0
-45 -314 0
3 45 314 0
c gate 315 313 314 0
313 -315 0
314 -315 0
-313 -314 315 0
c gate 316 307 315 0
307 -316 0
315 -316 0
-307 -315 316 0
c gate 317 -283 -316 0
-283 -317 0
-316 -317 0
283 316 317 0
c gate 318 9 -317 0
9 -318 0
-317 -318 0
-9 317 318 0
c gate 319 -301 -310 0
-301 -319 0
-310 -319 0
301 310 319 0
c gate 320 178 319 0
178 -320 0
319 -320 0
-178 -319 320 0
c gate 321 -11 304 0
-11 -321 0
304 -321 0
11 -304 321 0
c gate 322 -301 -321 0
-301 -322 0
-321 -322 0
301 321 322 0
c gate 323 -9 -310 0
-9 -323 0
-310 -323 0
9 310 323 0
c gate 324 9 310 0
9 -324 0
310 -324 0
-9 -310 324 0
c gate 325 -323 -324 0
-323 -325 0
-324 -325 0
323 324 325 0
c gate 326 -322 325 0
-322 -326 0
325 -326 0
322 -325 326 0
c gate 327 -320 -326 0
-320 -327 0
-326 -327 0
320 326 327 0
c gate 328 3 -327 0
3 -328 0
-327 -328 0
-3 327 328 0
c gate 329 -9 -12 0
-9 -329 0
-12 -329 0
9 12 329 0
c gate 330 -3 310 0
-3 -330 0
310 -330 0
3 -310 330 0
c gate 331 329 -330 0
329 -331 0
-330 -331 0
-329 330 331 0
c gate 332 218 310 0
218 -332 0
310 -332 0
-218 -310 332 0
c gate 333 -331 -332 0
-331 -333 0
-332 -333 0
331 332 333 0
c gate 334 322 -333 0
322 -334 0
-333 -334 0
-322 333 334 0
c gate 335 223 -313 0
223 -335 0
-313 -335 0
-223 313 335 0
c gate 336 307 335 0
307 -336 0
335 -336 0
-307 -335 336 0
c gate 337 -334 -336 0
-334 -337 0
-336 -337 0
334 336 337 0
c gate 338 -328 337 0
-328 -338 0
337 -338 0
328 -337 338 0
c gate 339 -318 338 0
-318 -339 0
338 -339 0
318 -338 339 0
c gate 340 -11 -299 0
-11 -340 0
-299 -340 0
11 299 340 0
c gate 341 312 340 0
312 -341 0
340 -341 0
-312 -340 341 0
c gate 342 -3 -308 0
-3 -342 0
-308 -342 0
3 308 342 0
c gate 343 -301 342 0
-301 -343 0
342 -343 0
301 -342 343 0
c gate 344 -341 343 0
-341 -344 0
343 -344 0
341 -343 344 0
c gate 345 59 310 0
59 -345 0
310 -345 0
-59 -310 345 0
c gate 346 12 -298 0
12 -346 0
-298 -346 0
-12 298 346 0
c gate 347 -345 -346 0
-345 -347 0
-346 -347 0
345 346 347 0
c gate 348 -344 347 0
-344 -348 0
347 -348 0
344 -347 348 0
c gate 349 9 -348 0
9 -349 0
-348 -349 0
-9 348 349 0
c gate 350 -299 -301 0
-299 -350 0
-301 -350 0
299 301 350 0
c gate 351 -60 350 0
-60 -351 0
350 -351 0
60 -350 351 0
c gate 352 60 -350 0
60 -352 0
-350 -352 0
-60 350 352 0
c gate 353 -313 -352 0
-313 -353 0
-352 -353 0
313 352 353 0
c gate 354 -351 353 0
-351 -354 0
353 -354 0
351 -353 354 0
c gate 355 319 -340 0
319 -355 0
-340 -355 0
-319 340 355 0
c gate 356 -3 -355 0
-3 -356 0
-355 -356 0
3 355 356 0
c gate 357 -354 356 0
-354 -357 0
356 -357 0
354 -356 357 0
c gate 358 329 -357 0
329 -358 0
-357 -358 0
-329 357 358 0
c gate 359 -349 -358 0
-349 -359 0
-358 -359 0
349 358 359 0
c gate 360 -339 -359 0
-339 -360 0
-359 -360 0
339 359 360 0
c gate 361 339 359 0
339 -361 0
359 -361 0
-339 -359 361 0
c gate 362 -360 -361 0
-360 -362 0
-361 -362 0
360 361 362 0
c gate 363 9 -342 0
9 -363 0
-342 -363 0
-9 342 363 0
c gate 364 -110 -115 0
-110 -364 0
-115 -364 0
110 115 364 0
c gate 365 29 -364 0
29 -365 0
-364 -365 0
-29 364 365 0
c gate 366 -363 -365 0
-363 -366 0
-365 -366 0
363 365 366 0
c gate 367 -37 -366 0
-37 -367 0
-366 -367 0
37 366 367 0
c gate 368 37 366 0
37 -368 0
366 -368 0
-37 -366 368 0
c gate 369 -4 -9 0
-4 -369 0
-9 -369 0
4 9 369 0
c gate 370 6 369 0
6 -370 0
369 -370 0
-6 -369 370 0
c gate 371 -278 -369 0
-278 -371 0
-369 -371 0
278 369 371 0
c gate 372 8 -371 0
8 -372 0
-371 -372 0
-8 371 372 0
c gate 373 -370 372 0
-370 -373 0
372 -373 0
370 -372 373 0
c gate 374 -8 -278 0
-8 -374 0
-278 -374 0
8 278 374 0
c gate 375 -105 374 0
-105 -375 0
374 -375 0
105 -374 375 0
c gate 376 -373 -375 0
-373 -376 0
-375 -376 0
373 375 376 0
c gate 377 80 -376 0
80 -377 0
-376 -377 0
-80 376 377 0
c gate 378 -237 -377 0
-237 -378 0
-377 -378 0
237 377 378 0
c gate 379 -109 -378 0
-109 -379 0
-378 -379 0
109 378 379 0
c gate 380 -30 -104 0
-30 -380 0
-104 -380 0
30 104 380 0
c gate 381 301 -380 0
301 -381 0
-380 -381 0
-301 380 381 0
c gate 382 -379 -381 0
-379 -382 0
-381 -382 0
379 381 382 0
c gate 383 48 -279 0
48 -383 0
-279 -383 0
-48 279 383 0
c gate 384 -373 383 0
-373 -384 0
383 -384 0
373 -383 384 0
c gate 385 -5 30 0
-5 -385 0
30 -385 0
5 -30 385 0
c gate 386 104 288 0
104 -386 0
288 -386 0
-104 -288 386 0
c gate 387 -385 -386 0
-385 -387 0
-386 -387 0
385 386 387 0
c gate 388 -1 -387 0
-1 -388 0
-387 -388 0
1 387 388 0
c gate 389 -105 -385 0
-105 -389 0
-385 -389 0
105 385 389 0
c gate 390 1 -389 0
1 -390 0
-389 -390 0
-1 389 390 0
c gate 391 6 -8 0
6 -391 0
-8 -391 0
-6 8 391 0
c gate 392 -115 -391 0
-115 -392 0
-391 -392 0
115 391 392 0
c gate 393 5 9 0
5 -393 0
9 -393 0
-5 -9 393 0
c gate 394 -392 393 0
-392 -394 0
393 -394 0
392 -393 394 0
c gate 395 -390 -394 0
-390 -395 0
-394 -395 0
390 394 395 0
c gate 396 -388 395 0
-388 -396 0
395 -396 0
388 -395 396 0
c gate 397 -384 396 0
-384 -397 0
396 -397 0
384 -396 397 0
c gate 398 9 -109 0
9 -398 0
-109 -398 0
-9 109 398 0
c gate 399 -11 -104 0
-11 -399 0
-104 -399 0
11 104 399 0
c gate 400 -398 399 0
-398 -400 0
399 -400 0
398 -399 400 0
c gate 401 -397 400 0
-397 -401 0
400 -401 0
397 -400 401 0
c gate 402 102 -397 0
102 -402 0
-397 -402 0
-102 397 402 0
c gate 403 7 376 0
7 -403 0
376 -403 0
-7 -376 403 0
c gate 404 -4 -403 0
-4 -404 0
-403 -404 0
4 403 404 0
c gate 405 -8 71 0
-8 -405 0
71 -405 0
8 -71 405 0
c gate 406 -404 405 0
-404 -406 0
405 -406 0
404 -405 406 0
c gate 407 -402 406 0
-402 -407 0
406 -407 0
402 -406 407 0
c gate 408 -401 -407 0
-401 -408 0
-407 -408 0
401 407 408 0
c gate 409 382 408 0
382 -409 0
408 -409 0
-382 -408 409 0
c gate 410 368 -409 0
368 -410 0
-409 -410 0
-368 409 410 0
c gate 411 -367 -410 0
-367 -411 0
-410 -411 0
367 410 411 0
c gate 412 -11 -411 0
-11 -412 0
-411 -412 0
11 411 412 0
c gate 413 194 -366 0
194 -413 0
-366 -413 0
-194 366 413 0
c gate 414 2 -363 0
2 -414 0
-363 -414 0
-2 363 414 0
c gate 415 78 414 0
78 -415 0
414 -415 0
-78 -414 415 0
c gate 416 -413 -415 0
-413 -416 0
-415 -416 0
413 415 416 0
c gate 417 -409 -416 0
-409 -417 0
-416 -417 0
409 416 417 0
c gate 418 -10 366 0
-10 -418 0
366 -418 0
10 -366 418 0
c gate 419 -11 -414 0
-11 -419 0
-414 -419 0
11 414 419 0
c gate 420 -59 -419 0
-59 -420 0
-419 -420 0
59 419 420 0
c gate 421 -418 420 0
-418 -421 0
420 -421 0
418 -420 421 0
c gate 422 409 421 0
409 -422 0
421 -422 0
-409 -421 422 0
c gate 423 -417 -422 0
-417 -423 0
-422 -423 0
417 422 423 0
c gate 424 -412 423 0
-412 -424 0
423 -424 0
412 -423 424 0
c gate 425 -3 -424 0
-3 -425 0
-424 -425 0
3 424 425 0
c gate 426 368 409 0
368 -426 0
409 -426 0
-368 -409 426 0
c gate 427 -39 -426 0
-39 -427 0
-426 -427 0
39 426 427 0
c gate 428 11 -427 0
11 -428 0
-427 -428 0
-11 427 428 0
c gate 429 -43 -78 0
-43 -429 0
-78 -429 0
43 78 429 0
c gate 430 276 429 0
276 -430 0
429 -430 0
-276 -429 430 0
c gate 431 -366 430 0
-366 -431 0
430 -431 0
366 -430 431 0
c gate 432 -428 -431 0
-428 -432 0
-431 -432 0
428 431 432 0
c gate 433 -425 432 0
-425 -433 0
432 -433 0
425 -432 433 0
c gate 434 376 400 0
376 -434 0
400 -434 0
-376 -400 434 0
c gate 435 -406 -434 0
-406 -435 0
-434 -435 0
406 434 435 0
c gate 436 382 435 0
382 -436 0
435 -436 0
-382 -435 436 0
c gate 437 368 -436 0
368 -437 0
-436 -437 0
-368 436 437 0
c gate 438 -367 -437 0
-367 -438 0
-437 -438 0
367 437 438 0
c gate 439 -11 -438 0
-11 -439 0
-438 -439 0
11 438 439 0
c gate 440 -416 -436 0
-416 -440 0
-436 -440 0
416 436 440 0
c gate 441 421 436 0
421 -441 0
436 -441 0
-421 -436 441 0
c gate 442 -440 -441 0
-440 -442 0
-441 -442 0
440 441 442 0
c gate 443 -439 442 0
-439 -443 0
442 -443 0
439 -442 443 0
c gate 444 -3 -443 0
-3 -444 0
-443 -444 0
3 443 444 0
c gate 445 368 436 0
368 -445 0
436 -445 0
-368 -436 445 0
c gate 446 -39 -445 0
-39 -446 0
-445 -446 0
39 445 446 0
c gate 447 11 -446 0
11 -447 0
-446 -447 0
-11 446 447 0
c gate 448 -431 -447 0
-431 -448 0
-447 -448 0
431 447 448 0
c gate 449 -444 448 0
-444 -449 0
448 -449 0
444 -448 449 0
c gate 450 433 -449 0
433 -450 0
-449 -450 0
-433 449 450 0
c gate 451 -433 449 0
-433 -451 0
449 -451 0
433 -449 451 0
c gate 452 58 149 0
58 -452 0
149 -452 0
-58 -149 452 0
c gate 453 69 148 0
69 -453 0
148 -453 0
-69 -148 453 0
c gate 454 44 196 0
44 -454 0
196 -454 0
-44 -196 454 0
c gate 455 -7 43 0
-7 -455 0
43 -455 0
7 -43 455 0
c gate 456 104 455 0
104 -456 0
455 -456 0
-104 -455 456 0
c gate 457 7 78 0
7 -457 0
78 -457 0
-7 -78 457 0
c gate 458 385 457 0
385 -458 0
457 -458 0
-385 -457 458 0
c gate 459 -456 -458 0
-456 -459 0
-458 -459 0
456 458 459 0
c gate 460 -6 29 0
-6 -460 0
29 -460 0
6 -29 460 0
c gate 461 -459 460 0
-459 -461 0
460 -461 0
459 -460 461 0
c gate 462 -454 -461 0
-454 -462 0
-461 -462 0
454 461 462 0
c gate 463 -453 462 0
-453 -463 0
462 -463 0
453 -462 463 0
c gate 464 -452 463 0
-452 -464 0
463 -464 0
452 -463 464 0
c gate 465 -451 464 0
-451 -465 0
464 -465 0
451 -464 465 0
c gate 466 -450 465 0
-450 -466 0
465 -466 0
450 -465 466 0
c gate 467 -362 466 0
-362 -467 0
466 -467 0
362 -466 467 0
c gate 468 -274 467 0
-274 -468 0
467 -468 0
274 -467 468 0
c gate 469 -273 468 0
-273 -469 0
468 -469 0
273 -468 469 0
c gate 470 -272 469 0
-272 -470 0
469 -470 0
272 -469 470 0
c gate 471 -271 470 0
-271 -471 0
470 -471 0
271 -470 471 0
c PO
-471 0
